22 3
4 3 4
0 0 0 0 20 2 3 4 5 6 7 8 9 10 11 12 13 14 15 16 17 18 19 20 21
4 2 1 1 2 22 21
1 0 0 1 3 22 14 17
5 2 0 2 3 22 14 5
2 1 1 0 3 22 19 7
1 1 0 2 2 22 9
1 2 0 1 1 22
2 2 0 0 1 22
1 1 0 1 1 22
2 1 1 1 2 22 14
4 1 1 0 2 22 15
1 1 0 2 2 22 16
4 0 0 0 3 22 15 21
4 2 0 0 2 22 15
2 2 1 2 1 22
2 1 1 1 2 22 21
5 1 1 2 1 22
5 2 0 1 1 22
5 0 0 0 1 22
2 0 0 1 1 22
5 0 0 0 1 22
0 0 0 0 0
